% Auto-generated by scripts/generate_dzn.py
% problem_type   = regex
% instance       = regex_7
% source_json    = instances_json/1_medium_blowup/regex_7.json
% blowup         = 2.6
% representation = DFA

mode = 0;

var_count = 12;
n_constraints = 2;
Q = 41;
S = 3;
q0 = [1, 1];
F = [{29, 30, 31, 32, 33, 34, 35, 36, 37, 38, 39, 40, 41}, {10}];
weights = [4, 8, 4, 6, 4, 3, 10, 4, 3, 1, 6, 2];
d_dfa = array3d(1..2, 1..41, 1..3, [
  % k = 1
    1, 1, 2,
    1, 3, 2,
    1, 4, 2,
    6, 6, 5,
    8, 9, 7,
    8, 8, 7,
    11, 12, 10,
    11, 11, 10,
    11, 13, 10,
    15, 16, 14,
    15, 15, 14,
    15, 17, 14,
    19, 19, 18,
    21, 22, 20,
    21, 21, 20,
    21, 23, 20,
    25, 25, 24,
    27, 28, 26,
    27, 27, 26,
    30, 31, 29,
    30, 30, 29,
    30, 32, 29,
    34, 34, 33,
    36, 37, 35,
    36, 36, 35,
    39, 40, 38,
    39, 39, 38,
    39, 41, 38,
    1, 3, 2,
    1, 1, 2,
    1, 4, 2,
    6, 6, 5,
    8, 9, 7,
    8, 8, 7,
    11, 12, 10,
    11, 11, 10,
    11, 13, 10,
    15, 16, 14,
    15, 15, 14,
    15, 17, 14,
    19, 19, 18,

  % k = 2
    1, 1, 2,
    2, 2, 3,
    3, 3, 4,
    4, 4, 5,
    5, 5, 6,
    6, 6, 7,
    7, 7, 8,
    8, 8, 9,
    9, 9, 10,
    10, 10, 11,
    11, 11, 11,
    0, 0, 0,
    0, 0, 0,
    0, 0, 0,
    0, 0, 0,
    0, 0, 0,
    0, 0, 0,
    0, 0, 0,
    0, 0, 0,
    0, 0, 0,
    0, 0, 0,
    0, 0, 0,
    0, 0, 0,
    0, 0, 0,
    0, 0, 0,
    0, 0, 0,
    0, 0, 0,
    0, 0, 0,
    0, 0, 0,
    0, 0, 0,
    0, 0, 0,
    0, 0, 0,
    0, 0, 0,
    0, 0, 0,
    0, 0, 0,
    0, 0, 0,
    0, 0, 0,
    0, 0, 0,
    0, 0, 0,
    0, 0, 0,
    0, 0, 0
]);
d_nfa = array3d(1..2, 1..41, 1..3, [
  % k = 1
    {}, {}, {},
    {}, {}, {},
    {}, {}, {},
    {}, {}, {},
    {}, {}, {},
    {}, {}, {},
    {}, {}, {},
    {}, {}, {},
    {}, {}, {},
    {}, {}, {},
    {}, {}, {},
    {}, {}, {},
    {}, {}, {},
    {}, {}, {},
    {}, {}, {},
    {}, {}, {},
    {}, {}, {},
    {}, {}, {},
    {}, {}, {},
    {}, {}, {},
    {}, {}, {},
    {}, {}, {},
    {}, {}, {},
    {}, {}, {},
    {}, {}, {},
    {}, {}, {},
    {}, {}, {},
    {}, {}, {},
    {}, {}, {},
    {}, {}, {},
    {}, {}, {},
    {}, {}, {},
    {}, {}, {},
    {}, {}, {},
    {}, {}, {},
    {}, {}, {},
    {}, {}, {},
    {}, {}, {},
    {}, {}, {},
    {}, {}, {},
    {}, {}, {},

  % k = 2
    {}, {}, {},
    {}, {}, {},
    {}, {}, {},
    {}, {}, {},
    {}, {}, {},
    {}, {}, {},
    {}, {}, {},
    {}, {}, {},
    {}, {}, {},
    {}, {}, {},
    {}, {}, {},
    {}, {}, {},
    {}, {}, {},
    {}, {}, {},
    {}, {}, {},
    {}, {}, {},
    {}, {}, {},
    {}, {}, {},
    {}, {}, {},
    {}, {}, {},
    {}, {}, {},
    {}, {}, {},
    {}, {}, {},
    {}, {}, {},
    {}, {}, {},
    {}, {}, {},
    {}, {}, {},
    {}, {}, {},
    {}, {}, {},
    {}, {}, {},
    {}, {}, {},
    {}, {}, {},
    {}, {}, {},
    {}, {}, {},
    {}, {}, {},
    {}, {}, {},
    {}, {}, {},
    {}, {}, {},
    {}, {}, {},
    {}, {}, {},
    {}, {}, {}
]);
